c File: flat50_3_0.col
c
c SOURCE: Joseph Culberson (joe@cs.ualberta.ca)
c DESCRIPTION: Quasi-random coloring problem
c              generated with flatness = 0
c                             probability = 0.139
c                             known coloring = 3
c                             random seed = 1845
c              Creation Date:  Tue Jun  9 12:19:21 1998
c Maximum degree = 8 Minimum degree = 1
c p edge 50 115
c cnf created by edge2cnf
p cnf 150 545
-1 -2 0
-1 -3 0
-2 -3 0
1 2 3 0
-4 -5 0
-4 -6 0
-5 -6 0
4 5 6 0
-7 -8 0
-7 -9 0
-8 -9 0
7 8 9 0
-10 -11 0
-10 -12 0
-11 -12 0
10 11 12 0
-13 -14 0
-13 -15 0
-14 -15 0
13 14 15 0
-16 -17 0
-16 -18 0
-17 -18 0
16 17 18 0
-19 -20 0
-19 -21 0
-20 -21 0
19 20 21 0
-22 -23 0
-22 -24 0
-23 -24 0
22 23 24 0
-25 -26 0
-25 -27 0
-26 -27 0
25 26 27 0
-28 -29 0
-28 -30 0
-29 -30 0
28 29 30 0
-31 -32 0
-31 -33 0
-32 -33 0
31 32 33 0
-34 -35 0
-34 -36 0
-35 -36 0
34 35 36 0
-37 -38 0
-37 -39 0
-38 -39 0
37 38 39 0
-40 -41 0
-40 -42 0
-41 -42 0
40 41 42 0
-43 -44 0
-43 -45 0
-44 -45 0
43 44 45 0
-46 -47 0
-46 -48 0
-47 -48 0
46 47 48 0
-49 -50 0
-49 -51 0
-50 -51 0
49 50 51 0
-52 -53 0
-52 -54 0
-53 -54 0
52 53 54 0
-55 -56 0
-55 -57 0
-56 -57 0
55 56 57 0
-58 -59 0
-58 -60 0
-59 -60 0
58 59 60 0
-61 -62 0
-61 -63 0
-62 -63 0
61 62 63 0
-64 -65 0
-64 -66 0
-65 -66 0
64 65 66 0
-67 -68 0
-67 -69 0
-68 -69 0
67 68 69 0
-70 -71 0
-70 -72 0
-71 -72 0
70 71 72 0
-73 -74 0
-73 -75 0
-74 -75 0
73 74 75 0
-76 -77 0
-76 -78 0
-77 -78 0
76 77 78 0
-79 -80 0
-79 -81 0
-80 -81 0
79 80 81 0
-82 -83 0
-82 -84 0
-83 -84 0
82 83 84 0
-85 -86 0
-85 -87 0
-86 -87 0
85 86 87 0
-88 -89 0
-88 -90 0
-89 -90 0
88 89 90 0
-91 -92 0
-91 -93 0
-92 -93 0
91 92 93 0
-94 -95 0
-94 -96 0
-95 -96 0
94 95 96 0
-97 -98 0
-97 -99 0
-98 -99 0
97 98 99 0
-100 -101 0
-100 -102 0
-101 -102 0
100 101 102 0
-103 -104 0
-103 -105 0
-104 -105 0
103 104 105 0
-106 -107 0
-106 -108 0
-107 -108 0
106 107 108 0
-109 -110 0
-109 -111 0
-110 -111 0
109 110 111 0
-112 -113 0
-112 -114 0
-113 -114 0
112 113 114 0
-115 -116 0
-115 -117 0
-116 -117 0
115 116 117 0
-118 -119 0
-118 -120 0
-119 -120 0
118 119 120 0
-121 -122 0
-121 -123 0
-122 -123 0
121 122 123 0
-124 -125 0
-124 -126 0
-125 -126 0
124 125 126 0
-127 -128 0
-127 -129 0
-128 -129 0
127 128 129 0
-130 -131 0
-130 -132 0
-131 -132 0
130 131 132 0
-133 -134 0
-133 -135 0
-134 -135 0
133 134 135 0
-136 -137 0
-136 -138 0
-137 -138 0
136 137 138 0
-139 -140 0
-139 -141 0
-140 -141 0
139 140 141 0
-142 -143 0
-142 -144 0
-143 -144 0
142 143 144 0
-145 -146 0
-145 -147 0
-146 -147 0
145 146 147 0
-148 -149 0
-148 -150 0
-149 -150 0
148 149 150 0
-58 -1 0
-59 -2 0
-60 -3 0
-79 -1 0
-80 -2 0
-81 -3 0
-94 -1 0
-95 -2 0
-96 -3 0
-103 -1 0
-104 -2 0
-105 -3 0
-148 -1 0
-149 -2 0
-150 -3 0
-52 -4 0
-53 -5 0
-54 -6 0
-67 -4 0
-68 -5 0
-69 -6 0
-115 -4 0
-116 -5 0
-117 -6 0
-133 -4 0
-134 -5 0
-135 -6 0
-52 -7 0
-53 -8 0
-54 -9 0
-85 -7 0
-86 -8 0
-87 -9 0
-88 -7 0
-89 -8 0
-90 -9 0
-124 -7 0
-125 -8 0
-126 -9 0
-136 -7 0
-137 -8 0
-138 -9 0
-73 -10 0
-74 -11 0
-75 -12 0
-82 -10 0
-83 -11 0
-84 -12 0
-97 -10 0
-98 -11 0
-99 -12 0
-115 -10 0
-116 -11 0
-117 -12 0
-148 -10 0
-149 -11 0
-150 -12 0
-91 -13 0
-92 -14 0
-93 -15 0
-118 -13 0
-119 -14 0
-120 -15 0
-61 -16 0
-62 -17 0
-63 -18 0
-106 -16 0
-107 -17 0
-108 -18 0
-121 -16 0
-122 -17 0
-123 -18 0
-142 -16 0
-143 -17 0
-144 -18 0
-61 -19 0
-62 -20 0
-63 -21 0
-73 -19 0
-74 -20 0
-75 -21 0
-82 -19 0
-83 -20 0
-84 -21 0
-100 -19 0
-101 -20 0
-102 -21 0
-109 -22 0
-110 -23 0
-111 -24 0
-112 -22 0
-113 -23 0
-114 -24 0
-121 -22 0
-122 -23 0
-123 -24 0
-142 -22 0
-143 -23 0
-144 -24 0
-52 -25 0
-53 -26 0
-54 -27 0
-64 -25 0
-65 -26 0
-66 -27 0
-76 -25 0
-77 -26 0
-78 -27 0
-91 -25 0
-92 -26 0
-93 -27 0
-115 -25 0
-116 -26 0
-117 -27 0
-127 -25 0
-128 -26 0
-129 -27 0
-133 -25 0
-134 -26 0
-135 -27 0
-145 -25 0
-146 -26 0
-147 -27 0
-82 -28 0
-83 -29 0
-84 -30 0
-94 -28 0
-95 -29 0
-96 -30 0
-112 -28 0
-113 -29 0
-114 -30 0
-85 -31 0
-86 -32 0
-87 -33 0
-58 -34 0
-59 -35 0
-60 -36 0
-79 -34 0
-80 -35 0
-81 -36 0
-85 -34 0
-86 -35 0
-87 -36 0
-100 -34 0
-101 -35 0
-102 -36 0
-103 -34 0
-104 -35 0
-105 -36 0
-52 -37 0
-53 -38 0
-54 -39 0
-67 -37 0
-68 -38 0
-69 -39 0
-112 -37 0
-113 -38 0
-114 -39 0
-118 -37 0
-119 -38 0
-120 -39 0
-133 -37 0
-134 -38 0
-135 -39 0
-139 -37 0
-140 -38 0
-141 -39 0
-61 -40 0
-62 -41 0
-63 -42 0
-67 -40 0
-68 -41 0
-69 -42 0
-73 -40 0
-74 -41 0
-75 -42 0
-118 -40 0
-119 -41 0
-120 -42 0
-121 -40 0
-122 -41 0
-123 -42 0
-130 -40 0
-131 -41 0
-132 -42 0
-145 -40 0
-146 -41 0
-147 -42 0
-61 -43 0
-62 -44 0
-63 -45 0
-70 -43 0
-71 -44 0
-72 -45 0
-148 -43 0
-149 -44 0
-150 -45 0
-76 -46 0
-77 -47 0
-78 -48 0
-103 -46 0
-104 -47 0
-105 -48 0
-142 -46 0
-143 -47 0
-144 -48 0
-70 -49 0
-71 -50 0
-72 -51 0
-79 -49 0
-80 -50 0
-81 -51 0
-82 -49 0
-83 -50 0
-84 -51 0
-94 -49 0
-95 -50 0
-96 -51 0
-106 -49 0
-107 -50 0
-108 -51 0
-112 -49 0
-113 -50 0
-114 -51 0
-127 -49 0
-128 -50 0
-129 -51 0
-145 -49 0
-146 -50 0
-147 -51 0
-109 -52 0
-110 -53 0
-111 -54 0
-136 -52 0
-137 -53 0
-138 -54 0
-145 -52 0
-146 -53 0
-147 -54 0
-118 -55 0
-119 -56 0
-120 -57 0
-103 -61 0
-104 -62 0
-105 -63 0
-115 -61 0
-116 -62 0
-117 -63 0
-106 -64 0
-107 -65 0
-108 -66 0
-124 -64 0
-125 -65 0
-126 -66 0
-127 -64 0
-128 -65 0
-129 -66 0
-139 -64 0
-140 -65 0
-141 -66 0
-139 -67 0
-140 -68 0
-141 -69 0
-148 -67 0
-149 -68 0
-150 -69 0
-106 -70 0
-107 -71 0
-108 -72 0
-145 -70 0
-146 -71 0
-147 -72 0
-106 -73 0
-107 -74 0
-108 -75 0
-145 -73 0
-146 -74 0
-147 -75 0
-103 -76 0
-104 -77 0
-105 -78 0
-109 -76 0
-110 -77 0
-111 -78 0
-115 -79 0
-116 -80 0
-117 -81 0
-121 -79 0
-122 -80 0
-123 -81 0
-133 -79 0
-134 -80 0
-135 -81 0
-133 -82 0
-134 -83 0
-135 -84 0
-103 -85 0
-104 -86 0
-105 -87 0
-106 -85 0
-107 -86 0
-108 -87 0
-115 -85 0
-116 -86 0
-117 -87 0
-121 -88 0
-122 -89 0
-123 -90 0
-130 -88 0
-131 -89 0
-132 -90 0
-133 -88 0
-134 -89 0
-135 -90 0
-109 -91 0
-110 -92 0
-111 -93 0
-130 -91 0
-131 -92 0
-132 -93 0
-145 -91 0
-146 -92 0
-147 -93 0
-148 -91 0
-149 -92 0
-150 -93 0
-118 -94 0
-119 -95 0
-120 -96 0
-148 -94 0
-149 -95 0
-150 -96 0
-109 -97 0
-110 -98 0
-111 -99 0
-127 -97 0
-128 -98 0
-129 -99 0
-142 -97 0
-143 -98 0
-144 -99 0
-148 -100 0
-149 -101 0
-150 -102 0
